67 300 42 111 24 175 52 50 20 85 55 169 21 70 178 24 59 116 27 1 78 4 92 193 54 144 87 84 156 184 165 94 151 6 4 126 132 56 127 152 92 181 72 112 50 1 87 61 117 113 61 146 68 104 139 121 48 177 156 3 160 72 49 62 29 52 187 161 59 